c smth
s vc 200 140
198
197
195
194
191
190
189
187
184
183
181
180
179
177
175
173
171
168
166
165
164
163
161
160
159
158
157
156
155
153
151
150
149
148
147
146
145
144
143
142
140
138
137
136
135
134
133
130
128
127
125
124
123
122
120
118
117
114
113
111
109
107
106
104
103
102
101
99
97
95
94
92
91
89
88
87
84
83
82
80
79
77
74
73
71
70
68
67
65
64
63
62
61
60
59
57
56
55
54
53
52
51
50
49
47
46
45
44
43
42
41
40
39
37
36
35
34
32
31
29
27
26
25
22
21
20
18
17
14
13
12
11
9
8
7
6
5
4
2
1